
Gurobi 13.0.1 (linux64) logging started Thu Mar 26 04:21:43 2026

Set parameter LogFile to value "logs_sparse/50B_6F_robust_gamma_0d25_theta_0d05199999999999999_2026-03-26_04h21m30s.log"
Set parameter MIPGap to value 0.005
Set parameter OptimalityTol to value 0.005
Gurobi Optimizer version 13.0.1 build v13.0.1rc0 (linux64 - "Linux Mint 22")

CPU model: 12th Gen Intel(R) Core(TM) i7-12700, instruction set [SSE2|AVX|AVX2]
Thread count: 20 physical cores, 20 logical processors, using up to 20 threads

Non-default parameters:
TimeLimit  3600
SoftMemLimit  12
MIPGap  0.005
OptimalityTol  0.005

Optimize a model with 60351 rows, 780571 columns and 2406497 nonzeros (Max)
Model fingerprint: 0xb512b164
Model has 735061 linear objective coefficients
Variable types: 15571 continuous, 765000 integer (765000 binary)
Coefficient statistics:
  Matrix range     [3e-05, 1e+05]
  Objective range  [1e+00, 3e+03]
  Bounds range     [1e+00, 1e+05]
  RHS range        [8e-03, 1e+05]

Presolve removed 31036 rows and 564142 columns
Presolve time: 1.36s
Presolved: 29315 rows, 216429 columns, 690965 nonzeros
Variable types: 7521 continuous, 208908 integer (208908 binary)
Found heuristic solution: objective -3.92159e+08
Found heuristic solution: objective -3.87980e+08
Deterministic concurrent LP optimizer: primal simplex, dual simplex, and barrier
Showing barrier log only...

Root barrier log...

Ordering time: 0.41s

Barrier statistics:
 AA' NZ     : 4.006e+05
 Factor NZ  : 3.152e+06 (roughly 120 MB of memory)
 Factor Ops : 6.047e+08 (less than 1 second per iteration)
 Threads    : 18

                  Objective                Residual
Iter       Primal          Dual         Primal    Dual     Compl     Time
   0  -7.10954955e+11  1.05054966e+09  9.82e+06 5.12e+02  9.67e+06     3s
   1  -6.28936016e+10  1.72682102e+09  8.71e+05 5.70e+02  8.73e+05     3s
   2  -2.19580680e+09  1.40920554e+09  3.09e+04 1.41e+02  3.43e+04     3s
   3  -3.14479273e+08  1.03521578e+09  5.65e+03 2.07e+01  7.40e+03     3s
   4   4.55383558e+07  6.81480166e+08  8.23e+02 8.14e+00  1.99e+03     3s
   5   7.99624948e+07  2.29403879e+08  3.48e+02 1.26e+00  5.01e+02     3s
   6   9.63146467e+07  1.62098100e+08  1.32e+02 5.33e-01  2.07e+02     3s
   7   1.00816688e+08  1.27513939e+08  7.50e+01 2.88e-01  9.12e+01     3s
   8   1.03531282e+08  1.21299886e+08  3.95e+01 1.88e-01  5.60e+01     3s
   9   1.05347873e+08  1.14687048e+08  1.60e+01 9.51e-02  2.70e+01     3s
  10   1.05696415e+08  1.10697144e+08  1.19e+01 3.64e-02  1.49e+01     3s
  11   1.06224500e+08  1.08980796e+08  5.38e+00 1.68e-02  7.46e+00     3s
  12   1.06421016e+08  1.08149106e+08  3.28e+00 8.99e-03  4.37e+00     3s
  13   1.06444118e+08  1.07884291e+08  3.06e+00 6.90e-03  3.59e+00     3s
  14   1.06602573e+08  1.07414319e+08  1.64e+00 3.34e-03  1.90e+00     3s
  15   1.06759130e+08  1.07164644e+08  6.07e-01 1.45e-03  9.17e-01     3s
  16   1.06876401e+08  1.07056127e+08  1.86e-01 6.99e-04  4.04e-01     3s
  17   1.06918912e+08  1.06982010e+08  4.82e-02 2.36e-04  1.42e-01     3s
  18   1.06929002e+08  1.06965323e+08  2.19e-02 1.44e-04  8.15e-02     3s
  19   1.06934862e+08  1.06954287e+08  8.35e-03 8.27e-05  4.36e-02     3s
  20   1.06936430e+08  1.06949232e+08  5.49e-03 5.33e-05  2.87e-02     3s
  21   1.06936993e+08  1.06944981e+08  4.42e-03 2.92e-05  1.79e-02     3s
  22   1.06937696e+08  1.06944278e+08  3.13e-03 2.54e-05  1.48e-02     3s
  23   1.06938086e+08  1.06944115e+08  2.40e-03 3.54e-05  1.35e-02     4s
  24   1.06938663e+08  1.06942994e+08  1.33e-03 2.59e-05  9.72e-03     4s
  25   1.06938914e+08  1.06941913e+08  8.65e-04 1.29e-05  6.73e-03     4s
  26   1.06939111e+08  1.06941141e+08  5.06e-04 8.89e-06  4.55e-03     4s
  27   1.06939201e+08  1.06940501e+08  3.37e-04 5.47e-06  2.92e-03     4s
  28   1.06939282e+08  1.06940140e+08  2.03e-04 3.62e-06  1.92e-03     4s
  29   1.06939294e+08  1.06939934e+08  1.81e-04 2.58e-06  1.44e-03     4s
  30   1.06939334e+08  1.06939744e+08  1.13e-04 1.61e-06  9.20e-04     4s
  31   1.06939364e+08  1.06939614e+08  6.55e-05 9.63e-07  5.61e-04     4s
  32   1.06939376e+08  1.06939585e+08  4.59e-05 8.20e-07  4.69e-04     4s
  33   1.06939387e+08  1.06939490e+08  2.96e-05 3.48e-07  2.30e-04     4s
  34   1.06939399e+08  1.06939458e+08  1.66e-05 1.94e-07  1.31e-04     4s
  35   1.06939405e+08  1.06939442e+08  1.01e-05 1.21e-07  8.31e-05     4s
  36   1.06939407e+08  1.06939442e+08  8.64e-06 1.19e-07  7.84e-05     4s
  37   1.06939407e+08  1.06939439e+08  8.10e-06 1.05e-07  7.04e-05     4s
  38   1.06939409e+08  1.06939434e+08  6.23e-06 8.14e-08  5.52e-05     4s
  39   1.06939413e+08  1.06939425e+08  2.74e-06 4.18e-08  2.83e-05     4s
  40   1.06939413e+08  1.06939425e+08  2.45e-06 4.09e-08  2.71e-05     4s
  41   1.06939414e+08  1.06939420e+08  1.21e-06 2.03e-08  1.40e-05     4s
  42   1.06939415e+08  1.06939419e+08  5.89e-07 1.20e-08  8.34e-06     4s
  43   1.06939415e+08  1.06939417e+08  3.61e-07 6.57e-09  4.91e-06     4s
  44   1.06939415e+08  1.06939417e+08  2.80e-07 3.89e-09  3.19e-06     4s
  45   1.06939416e+08  1.06939416e+08  1.33e-07 1.60e-09  1.41e-06     5s
  46   1.06939416e+08  1.06939416e+08  1.22e-07 7.58e-10  8.93e-07     5s

Barrier solved model in 46 iterations and 4.58 seconds (6.57 work units)
Optimal objective 1.06939416e+08


Root crossover log...


Root simplex log...

Iteration    Objective       Primal Inf.    Dual Inf.      Time
   16671    1.0693942e+08   0.000000e+00   8.546124e+04      5s
   18267    1.0693942e+08   0.000000e+00   0.000000e+00      5s
Crossover time: 0.89 seconds (1.03 work units)
Concurrent spin time: 0.44s (can be avoided by choosing Method=3)

Solved with barrier

Root relaxation: objective 1.069394e+08, 18267 iterations, 4.15 seconds (4.65 work units)

    Nodes    |    Current Node    |     Objective Bounds      |     Work
 Expl Unexpl |  Obj  Depth IntInf | Incumbent    BestBd   Gap | It/Node Time

     0     0 1.0694e+08    0 4976 -3.880e+08 1.0694e+08   128%     -    7s
H    0     0                    -2.29010e+08 1.0694e+08   147%     -    9s
H    0     0                    -1.45433e+08 1.0694e+08   174%     -    9s
H    0     0                    -1.45432e+08 1.0694e+08   174%     -   11s
H    0     0                    -1.02217e+08 1.0694e+08   205%     -   14s
H    0     0                    -6.92086e+07 1.0694e+08   255%     -   16s
H    0     0                    -4.66410e+07 1.0694e+08   329%     -   17s
H    0     0                    -3.95344e+07 1.0694e+08   370%     -   18s
H    0     0                    -3.86762e+07 1.0694e+08   376%     -   19s
H    0     0                    3.152529e+07 1.0694e+08   239%     -   21s
     0     0 1.0694e+08    0 5580 3.1525e+07 1.0694e+08   239%     -   65s
H    0     0                    3.166911e+07 1.0694e+08   238%     -   67s
H    0     0                    3.196327e+07 1.0694e+08   235%     -   71s
H    0     0                    3.457777e+07 1.0694e+08   209%     -   73s
H    0     0                    3.674938e+07 1.0694e+08   191%     -   77s
H    0     0                    3.714054e+07 1.0694e+08   188%     -   78s
H    0     0                    3.716547e+07 1.0694e+08   188%     -   86s
H    0     0                    4.470152e+07 1.0694e+08   139%     -   86s
H    0     0                    5.273397e+07 1.0694e+08   103%     -   86s
H    0     0                    5.289324e+07 1.0694e+08   102%     -   89s
H    0     0                    5.534769e+07 1.0694e+08  93.2%     -   98s
H    0     0                    6.566611e+07 1.0694e+08  62.9%     -  102s
H    0     0                    6.572682e+07 1.0694e+08  62.7%     -  106s
H    0     0                    6.613934e+07 1.0694e+08  61.7%     -  110s
     0     0 1.0694e+08    0 5619 6.6139e+07 1.0694e+08  61.7%     -  144s
     0     0 1.0694e+08    0 5223 6.6139e+07 1.0694e+08  61.7%     -  182s
H    0     0                    9.020550e+07 1.0694e+08  18.6%     -  210s
H    0     0                    9.448883e+07 1.0694e+08  13.2%     -  211s
H    0     0                    9.612530e+07 1.0694e+08  11.2%     -  213s
H    0     0                    9.671201e+07 1.0694e+08  10.6%     -  215s
H    0     0                    9.688186e+07 1.0694e+08  10.4%     -  217s
H    0     0                    9.779933e+07 1.0694e+08  9.35%     -  219s
H    0     0                    9.833544e+07 1.0694e+08  8.75%     -  221s
H    0     0                    1.002339e+08 1.0694e+08  6.69%     -  226s
H    0     0                    1.015723e+08 1.0694e+08  5.28%     -  229s
H    0     0                    1.015745e+08 1.0694e+08  5.28%     -  234s
H    0     0                    1.016511e+08 1.0694e+08  5.20%     -  234s
H    0     0                    1.017843e+08 1.0694e+08  5.06%     -  234s
H    0     0                    1.023433e+08 1.0694e+08  4.49%     -  234s
H    0     0                    1.023696e+08 1.0694e+08  4.46%     -  235s
H    0     0                    1.032031e+08 1.0694e+08  3.62%     -  235s
H    0     0                    1.036786e+08 1.0694e+08  3.14%     -  235s
H    0     0                    1.037482e+08 1.0694e+08  3.08%     -  236s
H    0     0                    1.039037e+08 1.0694e+08  2.92%     -  236s
H    0     0                    1.044432e+08 1.0694e+08  2.39%     -  237s
H    0     0                    1.044934e+08 1.0694e+08  2.34%     -  237s
H    0     0                    1.045442e+08 1.0694e+08  2.29%     -  242s
H    0     0                    1.045692e+08 1.0694e+08  2.27%     -  245s
H    0     0                    1.046402e+08 1.0694e+08  2.20%     -  247s
H    0     0                    1.048454e+08 1.0694e+08  2.00%     -  250s
H    0     0                    1.048775e+08 1.0694e+08  1.97%     -  250s
H    0     0                    1.048792e+08 1.0694e+08  1.96%     -  252s
     0     0 1.0694e+08    0 5203 1.0488e+08 1.0694e+08  1.96%     -  253s
     0     0 1.0694e+08    0 6014 1.0488e+08 1.0694e+08  1.96%     -  314s
     0     0 1.0694e+08    0 5744 1.0488e+08 1.0694e+08  1.96%     -  317s
     0     0 1.0694e+08    0 6574 1.0488e+08 1.0694e+08  1.96%     -  366s
     0     0 1.0694e+08    0 6574 1.0488e+08 1.0694e+08  1.96%     -  368s
     0     0 1.0694e+08    0 6232 1.0488e+08 1.0694e+08  1.96%     -  369s
     0     2 1.0694e+08    0 6232 1.0488e+08 1.0694e+08  1.96%     -  447s
     1     3 1.0694e+08    1 5641 1.0488e+08 1.0694e+08  1.96% 14493  459s
     2     4 1.0694e+08    1 6738 1.0488e+08 1.0694e+08  1.96% 42056  506s
     3     6 1.0694e+08    2 6909 1.0488e+08 1.0694e+08  1.96% 30060  551s
     5    12 1.0694e+08    3 6535 1.0488e+08 1.0694e+08  1.96% 36258  606s
H    7    12                    1.048806e+08 1.0694e+08  1.96% 28758  606s
H   11    19                    1.048830e+08 1.0694e+08  1.96% 33283 1198s
H   18    38                    1.048849e+08 1.0694e+08  1.96% 112454 1468s
H   19    38                    1.049228e+08 1.0694e+08  1.92% 115115 1468s
H   22    38                    1.050671e+08 1.0694e+08  1.78% 119016 1468s
H   37    58                    1.055562e+08 1.0694e+08  1.31% 105578 1569s
H   38    58                    1.060668e+08 1.0694e+08  0.82% 102969 1569s
H   40    58                    1.061919e+08 1.0694e+08  0.70% 97979 1569s
H   57    78                    1.061976e+08 1.0694e+08  0.70% 70646 1815s
H   58    78                    1.061981e+08 1.0694e+08  0.70% 69777 1815s
H   59    78                    1.061984e+08 1.0694e+08  0.70% 68759 1815s
H   60    78                    1.062117e+08 1.0694e+08  0.68% 67719 1815s
H   64    78                    1.062190e+08 1.0694e+08  0.68% 63825 1815s
    77   191 1.0694e+08    8 5637 1.0622e+08 1.0694e+08  0.68% 54491 2432s
H  114   191                    1.062906e+08 1.0694e+08  0.61% 39636 2432s
H  118   191                    1.065703e+08 1.0694e+08  0.35% 38681 2432s

Cutting planes:
  Gomory: 3
  MIR: 19
  Flow cover: 56
  Zero half: 2
  RLT: 3034
  Relax-and-lift: 12

Explored 190 nodes (5461447 simplex iterations) in 2433.01 seconds (2772.02 work units)
Thread count was 20 (of 20 available processors)

Solution count 10: 1.0657e+08 1.06291e+08 1.06219e+08 ... 1.05556e+08

Optimal solution found (tolerance 5.00e-03)
Best objective 1.065703014541e+08, best bound 1.069386417426e+08, gap 0.3456%
